Cost:     822.27
Running time:     300.00

Solution: 
0     10     13     17     18     19     15     16     14     12      0      
0     67     65     66     62     74     63      0      
0     69     68     64     61     72     80     79     77     73     70     71     76     78     81      0      
0     20     21     22     24     25     27     29     30     28     26     23      0      
0     75      1      2      4      6      9     11      8      7      3      5      0      
0     32     33     31     35     37     38     39     36     34      0      
0     99    100     97     93     92     94     95     96     98      0      
0     43     42     41     40     44     45     46     48     51     50     52     49     47      0      
0     57     55     54     53     56     58     60     59      0      
0     91     89     88     85     84     82     83     86     87     90      0      
